(set-info :status unknown)
(declare-fun C () (_ BitVec 13))
(declare-fun C3 () (_ BitVec 11))
(declare-fun C2 () (_ BitVec 11))
(assert
 (let ((?x10993 (ite (and (distinct ((_ extract 3 2) C) (_ bv0 2)) true) (ite (and (distinct ((_ extract 3 3) C) (_ bv0 1)) true) (_ bv3 32) (_ bv2 32)) (ite (and (distinct ((_ extract 1 1) C) (_ bv0 1)) true) (_ bv1 32) (_ bv0 32)))))
 (let ((?x7052 (ite (and (distinct ((_ extract 6 6) C) (_ bv0 1)) true) (_ bv6 32) (ite (and (distinct ((_ extract 5 5) C) (_ bv0 1)) true) (_ bv5 32) (_ bv4 32)))))
 (let ((?x18984 (ite (and (distinct ((_ extract 9 9) C) (_ bv0 1)) true) (_ bv9 32) (ite (and (distinct ((_ extract 8 8) C) (_ bv0 1)) true) (_ bv8 32) (_ bv7 32)))))
 (let ((?x13045 (ite (and (distinct ((_ extract 12 12) C) (_ bv0 1)) true) (_ bv12 32) (ite (and (distinct ((_ extract 11 11) C) (_ bv0 1)) true) (_ bv11 32) (_ bv10 32)))))
 (let ((?x16661 (ite (and (distinct ((_ extract 12 7) C) (_ bv0 6)) true) (ite (and (distinct ((_ extract 12 10) C) (_ bv0 3)) true) ?x13045 ?x18984) (ite (and (distinct ((_ extract 6 4) C) (_ bv0 3)) true) ?x7052 ?x10993))))
 (let (($x17244 (and (and (distinct (bvsub C2 C3) (_ bv0 11)) true) (= (bvand (bvsub C2 C3) (bvsub (bvsub C2 C3) (_ bv1 11))) (_ bv0 11)))))
 (and (and (and (distinct C (_ bv0 13)) true) (= (bvand C (bvsub C (_ bv1 13))) (_ bv0 13))) $x17244 (bvslt ?x16661 (_ bv11 32)) false))))))))
(check-sat)
